p cnf 29 48
1 -9 0
26 28 0
11 -14 0
-4 13 0
23 -29 0
19 23 0
-10 21 0
7 -10 0
16 18 0
7 18 0
20 21 0
5 9 0
-6 -18 0
4 6 0
1 3 -29 0
1 -12 0
10 26 0
-6 10 0
-2 -26 0
7 -15 23 0
-12 17 0
-13 -27 0
3 -15 0
5 -16 0
-15 -22 0
3 26 0
10 15 0
5 8 -26 0
4 -22 26 0
-2 4 0
19 -24 26 0
-5 -27 -28 0
7 12 27 0
-15 23 0
10 12 21 0
-26 28 0
16 -21 0
5 -7 17 0
-7 -22 0
4 25 0
2 -18 0
5 27 0
-6 20 0
7 -28 0
10 -25 28 0
-1 7 0
-4 -18 0
4 28 0
